nN = 8;
nR = 40;
nH = 1;

a = [[24, 23, 16, 21, 15, 23, 24, 19, 21, 19, 18, 21, 20, 16, 21, 15, 20, 25, 21, 24, 24, 19, 22, 19, 22, 15, 23, 24, 18, 21, 22, 25, 18, 24, 22, 16, 18, 23, 21, 19], [22, 23, 25, 19, 18, 21, 22, 24, 23, 16, 19, 23, 15, 25, 20, 21, 17, 24, 24, 25, 25, 23, 19, 23, 21, 16, 21, 15, 16, 17, 19, 17, 19, 22, 25, 21, 25, 18, 21, 25], [21, 17, 23, 15, 20, 25, 24, 22, 25, 15, 18, 21, 17, 25, 20, 18, 21, 24, 15, 25, 18, 15, 22, 24, 24, 23, 23, 17, 21, 20, 16, 21, 23, 17, 18, 25, 24, 21, 25, 25], [22, 18, 15, 21, 16, 24, 15, 18, 20, 22, 17, 23, 25, 21, 22, 21, 15, 23, 16, 23, 16, 17, 25, 15, 15, 17, 15, 19, 17, 25, 23, 25, 22, 23, 17, 24, 15, 16, 16, 17], [25, 19, 24, 25, 21, 15, 15, 15, 25, 18, 19, 21, 20, 18, 19, 20, 18, 18, 16, 20, 23, 25, 23, 16, 21, 18, 16, 15, 15, 24, 18, 20, 21, 18, 23, 24, 17, 16, 20, 18], [17, 21, 22, 16, 15, 23, 20, 21, 16, 17, 25, 18, 16, 17, 15, 22, 24, 21, 16, 23, 23, 20, 17, 15, 22, 22, 21, 19, 15, 16, 25, 15, 20, 22, 22, 25, 18, 25, 20, 18], [20, 18, 22, 18, 15, 20, 23, 21, 17, 15, 16, 18, 25, 22, 22, 18, 23, 23, 15, 21, 25, 22, 23, 20, 21, 15, 16, 22, 21, 25, 25, 25, 19, 21, 25, 19, 21, 20, 24, 20], [24, 17, 22, 17, 15, 17, 17, 25, 19, 21, 15, 22, 18, 19, 25, 21, 22, 20, 16, 24, 20, 19, 17, 16, 20, 23, 16, 15, 17, 25, 25, 17, 25, 24, 18, 24, 16, 22, 16, 17]];
c = [[[0, 0, 0, 0, 0, 0, 0, 0, 0, 0, 0, 0, 0, 0, 0, 0, 0, 0, 0, 0, 0, 0, 0, 0, 0, 0, 0, 0, 0, 0, 0, 0, 0, 0, 0, 0, 0, 0, 0, 0], [34, 40, 44, 34, 39, 49, 38, 47, 30, 37, 40, 41, 43, 49, 31, 43, 43, 43, 50, 37, 30, 45, 37, 45, 34, 41, 43, 47, 30, 36, 30, 35, 49, 33, 38, 41, 40, 40, 41, 49], [47, 35, 39, 40, 49, 47, 39, 49, 34, 41, 42, 34, 43, 43, 37, 47, 39, 43, 39, 42, 43, 36, 36, 36, 30, 41, 35, 44, 46, 35, 38, 36, 33, 48, 45, 30, 44, 38, 32, 39], [32, 41, 43, 43, 45, 50, 50, 42, 37, 39, 33, 48, 43, 37, 44, 36, 32, 35, 50, 32, 31, 34, 35, 38, 31, 42, 36, 36, 44, 37, 40, 44, 45, 47, 39, 43, 34, 50, 41, 36], [41, 30, 35, 33, 46, 44, 37, 41, 33, 49, 49, 35, 36, 49, 47, 35, 49, 48, 31, 36, 50, 43, 41, 37, 38, 35, 36, 45, 30, 43, 48, 33, 45, 42, 37, 50, 45, 30, 38, 35], [33, 39, 50, 46, 34, 32, 32, 31, 33, 49, 35, 30, 31, 44, 37, 31, 49, 42, 31, 34, 43, 44, 38, 42, 32, 31, 48, 33, 37, 35, 38, 49, 41, 35, 50, 35, 35, 46, 30, 42], [37, 48, 47, 45, 32, 38, 49, 35, 30, 33, 43, 33, 46, 47, 41, 46, 35, 30, 41, 42, 38, 38, 43, 33, 37, 38, 39, 37, 31, 46, 48, 33, 44, 36, 36, 36, 48, 32, 49, 42], [49, 30, 34, 44, 34, 47, 33, 30, 34, 42, 42, 44, 45, 43, 33, 34, 37, 47, 45, 40, 34, 43, 43, 42, 47, 47, 43, 34, 33, 34, 30, 48, 31, 32, 42, 38, 32, 44, 50, 46]], [[0, 0, 0, 0, 0, 0, 0, 0, 0, 0, 0, 0, 0, 0, 0, 0, 0, 0, 0, 0, 0, 0, 0, 0, 0, 0, 0, 0, 0, 0, 0, 0, 0, 0, 0, 0, 0, 0, 0, 0], [0, 0, 0, 0, 0, 0, 0, 0, 0, 0, 0, 0, 0, 0, 0, 0, 0, 0, 0, 0, 0, 0, 0, 0, 0, 0, 0, 0, 0, 0, 0, 0, 0, 0, 0, 0, 0, 0, 0, 0], [48, 40, 31, 33, 30, 45, 41, 30, 40, 39, 36, 41, 38, 41, 47, 35, 36, 39, 44, 43, 38, 31, 33, 48, 50, 44, 31, 36, 45, 41, 38, 38, 38, 47, 42, 37, 40, 47, 48, 40], [37, 33, 42, 46, 41, 49, 49, 32, 38, 30, 36, 34, 40, 40, 30, 34, 30, 43, 49, 36, 36, 31, 31, 34, 42, 31, 48, 50, 44, 47, 43, 32, 47, 48, 35, 43, 43, 35, 46, 35], [49, 43, 43, 36, 31, 48, 35, 41, 36, 40, 46, 31, 42, 30, 37, 46, 45, 47, 32, 38, 38, 36, 38, 39, 36, 40, 33, 50, 36, 37, 41, 38, 43, 44, 30, 42, 37, 46, 42, 41], [35, 30, 39, 41, 43, 42, 32, 40, 35, 42, 32, 37, 37, 48, 47, 37, 48, 31, 50, 32, 47, 32, 44, 37, 31, 35, 30, 31, 41, 42, 31, 32, 32, 42, 45, 47, 38, 36, 49, 46], [39, 39, 39, 34, 36, 38, 41, 31, 47, 38, 34, 43, 37, 41, 47, 46, 34, 48, 38, 44, 43, 38, 50, 48, 35, 35, 33, 46, 30, 45, 35, 50, 31, 32, 49, 30, 35, 31, 44, 45], [30, 30, 35, 46, 35, 40, 41, 49, 38, 41, 31, 32, 48, 42, 30, 47, 31, 45, 44, 37, 34, 43, 31, 49, 31, 46, 46, 37, 34, 33, 33, 49, 40, 47, 36, 34, 38, 45, 38, 50]], [[0, 0, 0, 0, 0, 0, 0, 0, 0, 0, 0, 0, 0, 0, 0, 0, 0, 0, 0, 0, 0, 0, 0, 0, 0, 0, 0, 0, 0, 0, 0, 0, 0, 0, 0, 0, 0, 0, 0, 0], [0, 0, 0, 0, 0, 0, 0, 0, 0, 0, 0, 0, 0, 0, 0, 0, 0, 0, 0, 0, 0, 0, 0, 0, 0, 0, 0, 0, 0, 0, 0, 0, 0, 0, 0, 0, 0, 0, 0, 0], [0, 0, 0, 0, 0, 0, 0, 0, 0, 0, 0, 0, 0, 0, 0, 0, 0, 0, 0, 0, 0, 0, 0, 0, 0, 0, 0, 0, 0, 0, 0, 0, 0, 0, 0, 0, 0, 0, 0, 0], [50, 41, 39, 32, 46, 39, 47, 45, 50, 31, 46, 41, 41, 39, 42, 39, 47, 30, 45, 48, 39, 30, 46, 39, 37, 37, 44, 49, 34, 45, 45, 44, 46, 36, 42, 37, 43, 33, 42, 38], [45, 38, 49, 39, 44, 32, 36, 35, 32, 43, 46, 48, 44, 49, 35, 42, 44, 49, 32, 46, 39, 39, 34, 41, 40, 31, 38, 30, 35, 40, 45, 38, 44, 41, 40, 49, 39, 35, 31, 38], [34, 39, 30, 38, 42, 36, 40, 46, 31, 46, 31, 32, 49, 37, 46, 34, 31, 43, 30, 45, 48, 49, 50, 40, 31, 31, 49, 34, 44, 46, 47, 44, 30, 45, 43, 46, 32, 35, 42, 32], [45, 47, 38, 41, 35, 49, 41, 44, 41, 35, 33, 41, 50, 42, 31, 35, 46, 34, 47, 36, 40, 45, 45, 39, 43, 46, 43, 37, 43, 41, 33, 37, 48, 40, 43, 50, 33, 45, 48, 31], [38, 38, 39, 40, 36, 34, 44, 33, 48, 31, 41, 45, 39, 35, 30, 44, 40, 39, 42, 35, 38, 48, 43, 30, 45, 44, 34, 42, 30, 41, 48, 48, 48, 37, 49, 35, 42, 49, 50, 36]], [[0, 0, 0, 0, 0, 0, 0, 0, 0, 0, 0, 0, 0, 0, 0, 0, 0, 0, 0, 0, 0, 0, 0, 0, 0, 0, 0, 0, 0, 0, 0, 0, 0, 0, 0, 0, 0, 0, 0, 0], [0, 0, 0, 0, 0, 0, 0, 0, 0, 0, 0, 0, 0, 0, 0, 0, 0, 0, 0, 0, 0, 0, 0, 0, 0, 0, 0, 0, 0, 0, 0, 0, 0, 0, 0, 0, 0, 0, 0, 0], [0, 0, 0, 0, 0, 0, 0, 0, 0, 0, 0, 0, 0, 0, 0, 0, 0, 0, 0, 0, 0, 0, 0, 0, 0, 0, 0, 0, 0, 0, 0, 0, 0, 0, 0, 0, 0, 0, 0, 0], [0, 0, 0, 0, 0, 0, 0, 0, 0, 0, 0, 0, 0, 0, 0, 0, 0, 0, 0, 0, 0, 0, 0, 0, 0, 0, 0, 0, 0, 0, 0, 0, 0, 0, 0, 0, 0, 0, 0, 0], [42, 38, 31, 31, 44, 44, 47, 49, 37, 46, 37, 35, 50, 35, 35, 44, 48, 37, 38, 33, 37, 44, 33, 41, 49, 48, 38, 32, 33, 35, 41, 37, 41, 49, 44, 37, 42, 43, 46, 42], [35, 50, 41, 39, 42, 46, 46, 36, 32, 41, 39, 31, 38, 45, 39, 35, 41, 46, 43, 37, 30, 44, 30, 34, 30, 47, 44, 49, 35, 40, 43, 42, 32, 30, 50, 34, 32, 48, 38, 35], [45, 42, 39, 42, 48, 41, 34, 36, 35, 45, 42, 33, 43, 47, 40, 48, 46, 34, 49, 44, 44, 48, 47, 33, 41, 32, 33, 48, 42, 30, 30, 40, 35, 49, 34, 36, 38, 47, 35, 40], [30, 44, 42, 50, 44, 39, 44, 47, 31, 43, 30, 45, 39, 40, 44, 35, 42, 45, 34, 41, 45, 34, 48, 44, 40, 48, 37, 34, 50, 45, 39, 50, 47, 48, 40, 33, 30, 30, 31, 42]], [[0, 0, 0, 0, 0, 0, 0, 0, 0, 0, 0, 0, 0, 0, 0, 0, 0, 0, 0, 0, 0, 0, 0, 0, 0, 0, 0, 0, 0, 0, 0, 0, 0, 0, 0, 0, 0, 0, 0, 0], [0, 0, 0, 0, 0, 0, 0, 0, 0, 0, 0, 0, 0, 0, 0, 0, 0, 0, 0, 0, 0, 0, 0, 0, 0, 0, 0, 0, 0, 0, 0, 0, 0, 0, 0, 0, 0, 0, 0, 0], [0, 0, 0, 0, 0, 0, 0, 0, 0, 0, 0, 0, 0, 0, 0, 0, 0, 0, 0, 0, 0, 0, 0, 0, 0, 0, 0, 0, 0, 0, 0, 0, 0, 0, 0, 0, 0, 0, 0, 0], [0, 0, 0, 0, 0, 0, 0, 0, 0, 0, 0, 0, 0, 0, 0, 0, 0, 0, 0, 0, 0, 0, 0, 0, 0, 0, 0, 0, 0, 0, 0, 0, 0, 0, 0, 0, 0, 0, 0, 0], [0, 0, 0, 0, 0, 0, 0, 0, 0, 0, 0, 0, 0, 0, 0, 0, 0, 0, 0, 0, 0, 0, 0, 0, 0, 0, 0, 0, 0, 0, 0, 0, 0, 0, 0, 0, 0, 0, 0, 0], [41, 34, 42, 35, 50, 45, 36, 39, 49, 46, 44, 44, 41, 44, 50, 33, 30, 46, 47, 45, 32, 31, 49, 38, 39, 40, 47, 36, 47, 44, 46, 32, 38, 33, 37, 42, 36, 36, 38, 38], [33, 30, 46, 36, 32, 33, 50, 44, 31, 31, 45, 32, 36, 40, 32, 37, 32, 49, 34, 38, 45, 31, 37, 40, 47, 34, 38, 47, 42, 42, 34, 49, 32, 42, 44, 32, 37, 40, 45, 46], [30, 43, 32, 48, 34, 46, 40, 37, 45, 38, 37, 36, 50, 37, 40, 40, 34, 31, 46, 47, 49, 49, 39, 41, 42, 42, 48, 43, 44, 50, 40, 44, 44, 41, 42, 50, 43, 45, 48, 38]], [[0, 0, 0, 0, 0, 0, 0, 0, 0, 0, 0, 0, 0, 0, 0, 0, 0, 0, 0, 0, 0, 0, 0, 0, 0, 0, 0, 0, 0, 0, 0, 0, 0, 0, 0, 0, 0, 0, 0, 0], [0, 0, 0, 0, 0, 0, 0, 0, 0, 0, 0, 0, 0, 0, 0, 0, 0, 0, 0, 0, 0, 0, 0, 0, 0, 0, 0, 0, 0, 0, 0, 0, 0, 0, 0, 0, 0, 0, 0, 0], [0, 0, 0, 0, 0, 0, 0, 0, 0, 0, 0, 0, 0, 0, 0, 0, 0, 0, 0, 0, 0, 0, 0, 0, 0, 0, 0, 0, 0, 0, 0, 0, 0, 0, 0, 0, 0, 0, 0, 0], [0, 0, 0, 0, 0, 0, 0, 0, 0, 0, 0, 0, 0, 0, 0, 0, 0, 0, 0, 0, 0, 0, 0, 0, 0, 0, 0, 0, 0, 0, 0, 0, 0, 0, 0, 0, 0, 0, 0, 0], [0, 0, 0, 0, 0, 0, 0, 0, 0, 0, 0, 0, 0, 0, 0, 0, 0, 0, 0, 0, 0, 0, 0, 0, 0, 0, 0, 0, 0, 0, 0, 0, 0, 0, 0, 0, 0, 0, 0, 0], [0, 0, 0, 0, 0, 0, 0, 0, 0, 0, 0, 0, 0, 0, 0, 0, 0, 0, 0, 0, 0, 0, 0, 0, 0, 0, 0, 0, 0, 0, 0, 0, 0, 0, 0, 0, 0, 0, 0, 0], [41, 45, 32, 30, 38, 43, 45, 44, 42, 39, 33, 35, 39, 45, 43, 31, 49, 38, 44, 42, 50, 40, 37, 33, 45, 48, 44, 32, 46, 35, 41, 37, 46, 40, 48, 48, 33, 35, 41, 44], [30, 44, 38, 36, 34, 46, 44, 45, 46, 38, 47, 32, 46, 41, 46, 30, 41, 38, 45, 33, 30, 47, 43, 35, 33, 46, 39, 39, 32, 45, 38, 40, 47, 37, 38, 42, 39, 38, 50, 39]], [[0, 0, 0, 0, 0, 0, 0, 0, 0, 0, 0, 0, 0, 0, 0, 0, 0, 0, 0, 0, 0, 0, 0, 0, 0, 0, 0, 0, 0, 0, 0, 0, 0, 0, 0, 0, 0, 0, 0, 0], [0, 0, 0, 0, 0, 0, 0, 0, 0, 0, 0, 0, 0, 0, 0, 0, 0, 0, 0, 0, 0, 0, 0, 0, 0, 0, 0, 0, 0, 0, 0, 0, 0, 0, 0, 0, 0, 0, 0, 0], [0, 0, 0, 0, 0, 0, 0, 0, 0, 0, 0, 0, 0, 0, 0, 0, 0, 0, 0, 0, 0, 0, 0, 0, 0, 0, 0, 0, 0, 0, 0, 0, 0, 0, 0, 0, 0, 0, 0, 0], [0, 0, 0, 0, 0, 0, 0, 0, 0, 0, 0, 0, 0, 0, 0, 0, 0, 0, 0, 0, 0, 0, 0, 0, 0, 0, 0, 0, 0, 0, 0, 0, 0, 0, 0, 0, 0, 0, 0, 0], [0, 0, 0, 0, 0, 0, 0, 0, 0, 0, 0, 0, 0, 0, 0, 0, 0, 0, 0, 0, 0, 0, 0, 0, 0, 0, 0, 0, 0, 0, 0, 0, 0, 0, 0, 0, 0, 0, 0, 0], [0, 0, 0, 0, 0, 0, 0, 0, 0, 0, 0, 0, 0, 0, 0, 0, 0, 0, 0, 0, 0, 0, 0, 0, 0, 0, 0, 0, 0, 0, 0, 0, 0, 0, 0, 0, 0, 0, 0, 0], [0, 0, 0, 0, 0, 0, 0, 0, 0, 0, 0, 0, 0, 0, 0, 0, 0, 0, 0, 0, 0, 0, 0, 0, 0, 0, 0, 0, 0, 0, 0, 0, 0, 0, 0, 0, 0, 0, 0, 0], [33, 34, 50, 46, 35, 39, 33, 44, 37, 38, 38, 48, 40, 36, 33, 43, 34, 41, 45, 36, 32, 33, 32, 43, 32, 44, 30, 37, 38, 35, 38, 44, 46, 32, 46, 48, 35, 31, 33, 43]], [[0, 0, 0, 0, 0, 0, 0, 0, 0, 0, 0, 0, 0, 0, 0, 0, 0, 0, 0, 0, 0, 0, 0, 0, 0, 0, 0, 0, 0, 0, 0, 0, 0, 0, 0, 0, 0, 0, 0, 0], [0, 0, 0, 0, 0, 0, 0, 0, 0, 0, 0, 0, 0, 0, 0, 0, 0, 0, 0, 0, 0, 0, 0, 0, 0, 0, 0, 0, 0, 0, 0, 0, 0, 0, 0, 0, 0, 0, 0, 0], [0, 0, 0, 0, 0, 0, 0, 0, 0, 0, 0, 0, 0, 0, 0, 0, 0, 0, 0, 0, 0, 0, 0, 0, 0, 0, 0, 0, 0, 0, 0, 0, 0, 0, 0, 0, 0, 0, 0, 0], [0, 0, 0, 0, 0, 0, 0, 0, 0, 0, 0, 0, 0, 0, 0, 0, 0, 0, 0, 0, 0, 0, 0, 0, 0, 0, 0, 0, 0, 0, 0, 0, 0, 0, 0, 0, 0, 0, 0, 0], [0, 0, 0, 0, 0, 0, 0, 0, 0, 0, 0, 0, 0, 0, 0, 0, 0, 0, 0, 0, 0, 0, 0, 0, 0, 0, 0, 0, 0, 0, 0, 0, 0, 0, 0, 0, 0, 0, 0, 0], [0, 0, 0, 0, 0, 0, 0, 0, 0, 0, 0, 0, 0, 0, 0, 0, 0, 0, 0, 0, 0, 0, 0, 0, 0, 0, 0, 0, 0, 0, 0, 0, 0, 0, 0, 0, 0, 0, 0, 0], [0, 0, 0, 0, 0, 0, 0, 0, 0, 0, 0, 0, 0, 0, 0, 0, 0, 0, 0, 0, 0, 0, 0, 0, 0, 0, 0, 0, 0, 0, 0, 0, 0, 0, 0, 0, 0, 0, 0, 0], [0, 0, 0, 0, 0, 0, 0, 0, 0, 0, 0, 0, 0, 0, 0, 0, 0, 0, 0, 0, 0, 0, 0, 0, 0, 0, 0, 0, 0, 0, 0, 0, 0, 0, 0, 0, 0, 0, 0, 0]]];

q = [[[24], [18], [10], [18], [12], [16], [20], [24], [13], [25], [24], [14], [14], [14], [14], [17], [19], [19], [12], [23], [21], [15], [15], [25], [6], [23], [10], [18], [19], [23], [22], [22], [8], [21], [22], [17], [22], [25], [19], [7]], [[21], [9], [20], [7], [22], [18], [11], [10], [20], [24], [25], [17], [19], [22], [8], [18], [21], [7], [24], [7], [17], [24], [6], [24], [16], [13], [6], [7], [21], [6], [7], [6], [6], [17], [7], [10], [23], [21], [19], [13]], [[11], [20], [21], [18], [14], [10], [14], [20], [20], [10], [17], [11], [19], [12], [25], [6], [20], [21], [11], [6], [12], [8], [12], [8], [6], [19], [23], [13], [12], [7], [18], [16], [22], [18], [14], [23], [24], [25], [5], [6]], [[13], [16], [16], [13], [15], [15], [12], [20], [20], [20], [23], [19], [24], [24], [6], [20], [17], [23], [13], [16], [21], [16], [25], [19], [8], [22], [16], [5], [22], [21], [10], [11], [20], [16], [5], [15], [7], [11], [9], [17]], [[11], [21], [19], [23], [16], [12], [5], [16], [6], [8], [18], [9], [13], [8], [25], [17], [14], [12], [22], [11], [15], [15], [15], [23], [9], [12], [16], [20], [19], [17], [6], [9], [13], [17], [15], [14], [9], [23], [15], [16]], [[10], [23], [15], [22], [12], [5], [10], [18], [10], [6], [24], [15], [25], [17], [24], [9], [25], [7], [12], [17], [10], [8], [15], [12], [8], [9], [11], [8], [18], [17], [7], [18], [23], [20], [19], [13], [20], [24], [11], [25]], [[9], [14], [20], [21], [9], [13], [20], [10], [9], [20], [18], [7], [18], [5], [25], [21], [21], [6], [8], [5], [17], [25], [10], [20], [20], [7], [8], [9], [21], [7], [14], [25], [5], [23], [17], [22], [13], [16], [20], [20]], [[14], [8], [14], [8], [7], [24], [24], [15], [15], [13], [12], [23], [13], [24], [25], [19], [25], [17], [9], [11], [16], [11], [25], [21], [23], [24], [12], [6], [7], [25], [24], [24], [18], [24], [15], [24], [9], [5], [8], [16]]];
Q = [[71], [59], [59], [64], [58], [60], [59], [65]];
